DIMENSION: 16
EDGE_WEIGHT_TYPE: EXPLICIT
EDGE_WEIGHT_FORMAT: FULL_MATRIX
EDGE_WEIGHT_SECTION:
32767 32767 32767 100 32767 32767 94 32767 32767 32767 32767 32767 35 32767 32767 32767 
32767 32767 32767 32767 32767 72 32767 3 32767 73 6 100 32767 32767 32767 52 
32767 32767 32767 32767 32767 32767 32767 45 32767 32767 32767 32767 32767 29 32767 52 
100 32767 32767 32767 63 32767 32767 32767 32767 32767 32767 6 70 32767 32767 9 
32767 32767 32767 63 32767 32767 32767 32767 35 32767 1 94 32767 32767 32767 32767 
32767 72 32767 32767 32767 32767 32767 32767 32767 32767 3 19 6 94 32767 32767 
94 32767 32767 32767 32767 32767 32767 32767 32767 32767 32767 32767 52 32767 32767 32767 
32767 3 45 32767 32767 32767 32767 32767 32767 32767 32767 32767 32767 32767 32767 32767 
32767 32767 32767 32767 35 32767 32767 32767 32767 32767 32767 21 59 32767 32767 32767 
32767 73 32767 32767 32767 32767 32767 32767 32767 32767 32767 32767 32767 32767 39 32767 
32767 6 32767 32767 1 3 32767 32767 32767 32767 32767 32767 32767 32767 32767 3 
32767 100 32767 6 94 19 32767 32767 21 32767 32767 32767 32767 92 32767 32767 
35 32767 32767 70 32767 6 52 32767 59 32767 32767 32767 32767 32767 32767 48 
32767 32767 29 32767 32767 94 32767 32767 32767 32767 32767 92 32767 32767 56 32767 
32767 32767 32767 32767 32767 32767 32767 32767 32767 39 32767 32767 32767 56 32767 32767 
32767 52 52 9 32767 32767 32767 32767 32767 32767 3 32767 48 32767 32767 32767 
EOF